1408.95
1405.74
1367.18
1367.18
1352.78
1341.39
1322.92
1316.65
1314.67
1293.02
1279.09
1261.59
1251.34
1241.91
1241.91
1225.53
1225.53
1219.95
1210.41
1203.49
1197.50
1197.50
1190.63
1190.63
1185.57
1179.81
1171.55
1148.08
1148.08
1148.08
1146.32
1139.41
1130.09
1130.09
1129.50
1122.44
1117.82
1112.71
1112.26
1111.88
1107.59
1107.59
1091.71
1087.98
1087.32
1087.32
1078.22
1076.32
1076.16
1071.92
1071.92
1071.92
1071.88
1071.22
1070.03
1070.03
1068.65
1063.71
1044.71
1043.99
1040.14
1040.14
1031.14
1027.98
1027.98
1027.98
1026.70
1026.70
1019.33
1016.72
1012.62
1011.66
1011.08
1009.84
1007.59
1005.70
999.26
999.02
998.18
998.18
994.74
994.74
993.31
990.44
990.44
986.21
985.05
983.82
980.52
969.49
968.17
964.69
963.76
960.92
955.14
955.14
955.14
953.80
950.61
938.10
